GLPSOL: GLPK LP/MIP Solver, v4.55
Parameter(s) specified in the command line:
 -m tmp.mod
Reading model section from tmp.mod...
Reading data section from tmp.mod...
1733 lines were read
Generating obj...
Generating kirhoff...
Generating init_charge...
Generating batt_size...
Model has been successfully generated
GLPK Simplex Optimizer, v4.55
2498 rows, 2390 columns, 4826 non-zeros
Preprocessing...
1343 rows, 2289 columns, 4651 non-zeros
Scaling...
 A: min|aij| =  1.000e+00  max|aij| =  1.000e+00  ratio =  1.000e+00
Problem data seem to be well scaled
Constructing initial basis...
Size of triangular part is 1001
      0: obj =   0.000000000e+00  infeas =  1.092e+03 (342)
*   244: obj =   1.210000000e+02  infeas =  0.000e+00 (301)
*   289: obj =   1.020000000e+02  infeas =  0.000e+00 (300)
OPTIMAL LP SOLUTION FOUND
Time used:   0.0 secs
Memory used: 5.3 Mb (5606644 bytes)
#OUTPUT:
102
-20 -1 1 0 0 0 -3 0 0 -31 -75 2 -5 0 -29 0 -69 0 -8 1 -75 0 0 0 2 0 0 0 0 1 0 0 0 0 -1 -12 0 4 -66 -4 13 0 0 0 0 0 0 0 -2 0 0 0 0 0 0 0 0 0 0 0 0 0 -29 0 0 0 19 0 0 68 0 0 0 0 0 0 0 0 0 0 2 0 0 0 0 0 0 0 0 0 0 -2 -1 0 0 0 0 0 0 -1 0 0 -1 0 0 0 0 0 0 0 0 0 0 0 0 0 0 0 0 0 0 0 0 -8 12 4 -66 0 29 -10 -9 0 0 0 0 -1 0 0 2 0 0 1 0 0 0 1 -68 68 0 0 0 0 0 0 0 0 0 0 0 0 0 0 0 0 0 0 0 0 0 0 0 0 0 0 0 0 0 0 0 0 0 0 0 0 0 0 0 0 0 0 0 0 0 0 0 0 0 0 0 0 0 0 0 0 0 0 0 0 0 0 0 0 0 0 0 0 0 0 0 0 0 0 0 0 0 0 0 0 0 0 0 0 0 0 0 0 0 0 0 0 0 0 0 0 0 0 0 0 0 0 0 0 0 0 0 0 0 0 0 0 0 0 0 0 0 0 0 0 0 0 0 0 0 0 0 0 0 0 0 0 
-12 -2 0 -2 0 0 -2 -1 0 -16 0 -9 6 0 -16 0 -73 0 -8 -16 0 0 0 0 0 0 0 0 0 -18 0 0 0 0 -1 0 0 0 -73 0 -20 0 0 0 0 0 0 -93 -1 0 0 0 0 0 0 0 0 0 0 0 0 0 -15 0 0 0 0 0 0 73 1 0 0 0 -1 0 0 1 0 0 2 0 0 0 0 0 0 0 0 0 0 -1 -1 -1 0 0 0 1 0 -16 0 0 -16 0 0 0 0 0 -1 0 0 0 0 0 0 0 0 0 0 0 0 0 0 -8 0 0 -73 0 15 -6 6 0 1 0 -1 -1 0 0 1 0 0 1 1 -1 0 -17 -73 73 0 1 0 0 0 0 0 0 0 0 0 0 0 0 0 0 0 0 0 0 0 0 0 0 0 0 0 0 0 0 0 0 0 0 0 0 0 0 0 0 0 0 0 0 0 0 0 0 0 0 0 0 0 0 0 0 0 0 0 0 0 0 0 0 0 0 0 0 0 0 0 0 0 0 0 0 0 0 0 0 0 0 0 0 0 0 0 0 0 0 0 0 0 0 0 0 0 0 0 0 0 0 0 0 0 0 0 0 0 0 0 0 0 0 0 0 0 0 0 0 0 0 0 0 0 0 0 0 0 0 0 0 
-20 0 -1 0 0 0 0 0 0 0 0 -6 6 0 0 4 -1 4 -4 -7 0 -4 0 7 0 0 0 0 0 0 0 0 -4 0 -1 -11 0 0 0 -74 0 0 0 0 0 -74 -74 0 0 0 0 0 0 0 0 0 0 0 0 0 4 0 0 0 0 0 0 0 0 0 -7 0 0 0 0 0 0 0 0 0 2 0 0 0 0 0 0 0 0 0 0 0 -1 0 0 0 0 -7 0 0 0 0 0 0 0 0 0 0 0 0 0 0 0 0 0 0 0 0 0 0 0 0 0 -8 11 0 0 -4 0 -6 6 0 0 0 0 -1 0 0 0 0 0 1 0 0 7 0 0 0 0 0 0 0 0 0 0 0 0 0 0 0 0 0 0 0 0 0 0 0 0 0 0 0 0 0 0 0 0 0 0 0 0 0 0 0 0 0 0 0 0 0 0 0 0 0 0 0 0 0 0 0 0 0 0 0 0 0 0 0 0 0 0 0 0 0 0 0 0 0 0 0 0 0 0 0 0 0 0 0 0 0 0 0 0 0 0 0 0 0 0 0 0 0 0 0 0 0 0 0 0 0 0 0 0 0 0 0 0 0 0 0 0 0 0 0 0 0 0 0 0 0 0 0 0 0 0 0 0 0 0 0 
-20 1 -3 -2 -5 0 3 0 0 -32 0 3 0 0 -9 5 -5 4 3 -7 0 52 0 7 3 0 0 -5 0 0 0 0 -4 0 -1 -12 -5 0 3 -56 -3 0 0 0 0 -56 4 0 0 0 -2 0 -12 0 0 0 -62 0 0 1 4 0 -5 0 0 0 0 0 0 0 -7 0 -57 0 0 0 0 -1 0 -2 2 0 -2 0 0 0 0 0 1 0 0 0 -1 0 0 0 0 -7 0 0 0 0 0 0 0 0 0 0 0 0 0 0 0 0 0 0 4 0 0 0 0 1 7 -1 12 0 3 -4 4 0 0 0 0 0 3 -1 2 0 -2 6 -4 1 0 0 7 0 0 0 0 0 0 -4 0 0 -1 0 -7 0 0 0 0 0 0 0 0 0 0 0 0 0 0 0 0 0 0 0 0 0 0 0 0 0 0 0 0 0 0 0 0 0 0 0 0 0 0 0 0 0 0 0 0 0 0 0 0 0 0 0 0 0 0 0 0 0 0 0 0 0 0 0 0 0 0 0 0 0 0 0 0 0 0 0 0 0 0 0 0 0 0 0 0 0 0 0 0 0 0 0 0 0 0 0 0 0 0 0 0 0 0 0 0 0 0 0 0 0 0 0 0 0 0 0 0 0 0 0 0 0 0 0 
#OUTPUT END
Model has been successfully processed
